<number of tasks>
50

<cycle time>
1000

<order strength>
0.196


<task times>
1 501
2 572
3 437
4 604
5 379
6 580
7 608
8 585
9 363
10 463
11 611
12 856
13 328
14 384
15 488
16 449
17 562
18 398
19 395
20 452
21 720
22 445
23 516
24 271
25 376
26 521
27 622
28 483
29 450
30 432
31 474
32 682
33 500
34 502
35 388
36 435
37 513
38 473
39 339
40 484
41 697
42 574
43 479
44 486
45 344
46 438
47 557
48 570
49 552
50 404

<precedence relations>
1,12
1,13
1,17
4,32
8,28
9,16
10,13
10,15
11,14
11,30
12,18
13,18
13,43
14,20
14,29
15,19
15,46
16,18
16,21
16,37
17,22
18,26
18,27
18,36
19,23
20,25
20,32
21,24
21,28
22,26
22,49
22,50
23,31
23,43
24,29
24,30
29,32
29,39
30,33
31,34
31,35
31,36
31,37
33,39
33,40
33,42
34,38
34,41
35,39
35,45
38,45
38,49
38,50
39,48
40,43
40,46
40,47
40,50
41,44

<end>
